
Gurobi 9.1.2 (win64) logging started Thu Feb 24 16:01:01 2022

Changed value of parameter LogFile to gurobi.log
   Prev:   Default: 
Changed value of parameter MIPGap to 0.01
   Prev: 0.0001  Min: 0.0  Max: inf  Default: 0.0001
Changed value of parameter TimeLimit to 1200.0
   Prev: inf  Min: 0.0  Max: inf  Default: inf
Changed value of parameter MIPFocus to 1
   Prev: 0  Min: 0  Max: 3  Default: 0
Gurobi Optimizer version 9.1.2 build v9.1.2rc0 (win64)
Thread count: 6 physical cores, 12 logical processors, using up to 12 threads
Optimize a model with 78432 rows, 68161 columns and 289344 nonzeros
Model fingerprint: 0x87952b1e
Variable types: 48705 continuous, 19456 integer (19456 binary)
Coefficient statistics:
  Matrix range     [1e-05, 3e+09]
  Objective range  [1e+00, 1e+00]
  Bounds range     [1e+00, 1e+00]
  RHS range        [1e+00, 3e+09]
Warning: Model contains large matrix coefficient range
Warning: Model contains large rhs
         Consider reformulating model or setting NumericFocus parameter
         to avoid numerical issues.
Presolve removed 10352 rows and 10016 columns
Presolve time: 0.76s
Presolved: 68080 rows, 58145 columns, 250752 nonzeros
Variable types: 1 continuous, 58144 integer (58144 binary)

Deterministic concurrent LP optimizer: primal and dual simplex
Showing first log only...


Root simplex log...

Iteration    Objective       Primal Inf.    Dual Inf.      Time
   29682    3.1895002e+02   0.000000e+00   1.007098e+03      5s
   51990    2.0689854e+02   0.000000e+00   8.621681e+02     10s
   79294    1.1840659e+02   0.000000e+00   1.182459e+02     15s
  108042    3.9529943e+01   0.000000e+00   4.918542e+02     20s
  128750    1.5374794e+01   0.000000e+00   2.368794e+02     25s
  138040    1.2933549e+01   0.000000e+00   1.479671e+03     30s
  146130    1.1216110e+01   0.000000e+00   2.573869e+03     35s
  153440    1.0095507e+01   0.000000e+00   9.176964e+02     40s
  161650    8.9336454e+00   0.000000e+00   5.513153e+02     45s
  169600    8.0381556e+00   0.000000e+00   3.720261e+03     50s
  176580    7.1822164e+00   0.000000e+00   1.243081e+03     55s
